Maximize
  400000 x_z_tube + 5000 x_soorchle + 3000 x_wassa
Subject To
  c1: x_soorchle <= 15
  c2: 0.6666666666666667 x_wassa - 0.3333333333333333 x_z_tube - 0.3333333333333333 x_soorchle <= 0
  c3: 0.95 x_z_tube - 0.05 x_soorchle - 0.05 x_wassa >= 0
  c4: 1000 x_z_tube + 200 x_soorchle + 100 x_wassa <= 10000
End